%BLOCK LATTICE_CART
	3.83650300	0.00000000	0.00000000
	0.00000000	3.83650300	0.00000000
	0.00000000	0.00000000	19.40080690
%ENDBLOCK LATTICE_CART

%BLOCK cell_constraints
	1	1	3
	0	0	0
%ENDBLOCK cell_constraints

%BLOCK POSITIONS_FRAC
	O	0.00000000	0.00000000	0.00000000
	O	0.50000000	0.50000000	0.50000000
	O	0.00000000	0.00000000	0.79985600
	O	0.00000000	0.00000000	0.20014400
	O	0.50000000	0.50000000	0.29985600
	O	0.50000000	0.50000000	0.70014400
	O	0.50000000	0.00000000	0.90115200
	O	0.00000000	0.50000000	0.90115200
	O	0.50000000	0.00000000	0.09884800
	O	0.00000000	0.50000000	0.09884800
	O	0.00000000	0.50000000	0.40115200
	O	0.50000000	0.00000000	0.40115200
	O	0.00000000	0.50000000	0.59884800
	O	0.50000000	0.00000000	0.59884800
	Ca	0.00000000	0.00000000	0.50000000
	Ca	0.50000000	0.50000000	0.00000000
	Ca	0.00000000	0.00000000	0.68506200
	Ca	0.00000000	0.00000000	0.31493800
	Ca	0.50000000	0.50000000	0.18506200
	Ca	0.50000000	0.50000000	0.81493800
	Ti	0.00000000	0.00000000	0.89909000
	Ti	0.00000000	0.00000000	0.10091000
	Ti	0.50000000	0.50000000	0.39909000
	Ti	0.50000000	0.50000000	0.60091000
%ENDBLOCK POSITIONS_FRAC

kpoints_mp_grid = 7 7 1
kpoints_mp_offset = 0.0714285714286 0.0714285714286 0.5

%block species_pot
	Ca Ca_OTF_E1650_PBEsol_NC.usp
	O O_OTF_E1650_PBEsol_NC.usp
	Ti Ti_OTF_E1650_PBEsol_NC.usp
%endblock species_pot

symmetry_generate

snap_to_symmetry

