%BLOCK LATTICE_CART
	5.44770010	0.00000000	0.00000000
	0.00000000	5.38763810	0.00000000
	0.00000000	0.00000000	19.29005280
%ENDBLOCK LATTICE_CART

%BLOCK POSITIONS_FRAC
	O	0.04976400	0.67559900	0.00000000
	O	0.54976400	0.32440100	0.00000000
	O	0.04976400	0.17559900	0.50000000
	O	0.54976400	0.82440100	0.50000000
	O	0.01073500	0.31715400	0.69787200
	O	0.01073500	0.31715400	0.30212800
	O	0.51073500	0.68284600	0.69787200
	O	0.51073500	0.68284600	0.30212800
	O	0.01073500	0.81715400	0.19787200
	O	0.01073500	0.81715400	0.80212800
	O	0.51073500	0.18284600	0.19787200
	O	0.51073500	0.18284600	0.80212800
	O	0.82193400	0.95905400	0.61284600
	O	0.82193400	0.95905400	0.38715400
	O	0.32193400	0.04094600	0.61284600
	O	0.32193400	0.04094600	0.38715400
	O	0.82193400	0.45905400	0.11284600
	O	0.82193400	0.45905400	0.88715400
	O	0.32193400	0.54094600	0.11284600
	O	0.32193400	0.54094600	0.88715400
	O	0.24022700	0.54016300	0.58367800
	O	0.24022700	0.54016300	0.41632200
	O	0.74022700	0.45983700	0.58367800
	O	0.74022700	0.45983700	0.41632200
	O	0.24022700	0.04016300	0.08367800
	O	0.24022700	0.04016300	0.91632200
	O	0.74022700	0.95983700	0.08367800
	O	0.74022700	0.95983700	0.91632200
	Ca	0.99282700	0.24533100	0.00000000
	Ca	0.49282700	0.75466900	0.00000000
	Ca	0.99282700	0.74533100	0.50000000
	Ca	0.49282700	0.25466900	0.50000000
	Ca	0.07522400	0.24135500	0.81228500
	Ca	0.07522400	0.24135500	0.18771500
	Ca	0.57522400	0.75864500	0.81228500
	Ca	0.57522400	0.75864500	0.18771500
	Ca	0.07522400	0.74135500	0.31228500
	Ca	0.07522400	0.74135500	0.68771500
	Ca	0.57522400	0.25864500	0.31228500
	Ca	0.57522400	0.25864500	0.68771500
	Ti	0.03958900	0.25004400	0.59975200
	Ti	0.03958900	0.25004400	0.40024800
	Ti	0.53958900	0.74995600	0.59975200
	Ti	0.53958900	0.74995600	0.40024800
	Ti	0.03958900	0.75004400	0.09975200
	Ti	0.03958900	0.75004400	0.90024800
	Ti	0.53958900	0.24995600	0.09975200
	Ti	0.53958900	0.24995600	0.90024800
%ENDBLOCK POSITIONS_FRAC
