%BLOCK LATTICE_CART
	3.83650300	0.00000000	0.00000000
	0.00000000	3.83650300	0.00000000
	0.00000000	0.00000000	19.40080690
%ENDBLOCK LATTICE_CART

%BLOCK POSITIONS_FRAC
	O	0.00000000	0.00000000	0.00000000
	O	0.50000000	0.50000000	0.50000000
	O	0.00000000	0.00000000	0.79985600
	O	0.00000000	0.00000000	0.20014400
	O	0.50000000	0.50000000	0.29985600
	O	0.50000000	0.50000000	0.70014400
	O	0.50000000	0.00000000	0.90115200
	O	0.00000000	0.50000000	0.90115200
	O	0.50000000	0.00000000	0.09884800
	O	0.00000000	0.50000000	0.09884800
	O	0.00000000	0.50000000	0.40115200
	O	0.50000000	0.00000000	0.40115200
	O	0.00000000	0.50000000	0.59884800
	O	0.50000000	0.00000000	0.59884800
	Ca	0.00000000	0.00000000	0.50000000
	Ca	0.50000000	0.50000000	0.00000000
	Ca	0.00000000	0.00000000	0.68506200
	Ca	0.00000000	0.00000000	0.31493800
	Ca	0.50000000	0.50000000	0.18506200
	Ca	0.50000000	0.50000000	0.81493800
	Ti	0.00000000	0.00000000	0.89909000
	Ti	0.00000000	0.00000000	0.10091000
	Ti	0.50000000	0.50000000	0.39909000
	Ti	0.50000000	0.50000000	0.60091000
%ENDBLOCK POSITIONS_FRAC
