%BLOCK LATTICE_CART
	5.47835810	0.00000000	0.00000000
	0.00000000	5.39862060	0.00000000
	0.00000000	0.00000000	19.13341620
%ENDBLOCK LATTICE_CART

%BLOCK POSITIONS_FRAC
	O	0.16880300	0.25000000	0.00000000
	O	0.83119700	0.75000000	0.00000000
	O	0.66880300	0.25000000	0.50000000
	O	0.33119700	0.75000000	0.50000000
	O	0.32023000	0.25000000	0.80112400
	O	0.67977000	0.75000000	0.80112400
	O	0.32023000	0.25000000	0.19887600
	O	0.67977000	0.75000000	0.19887600
	O	0.82023000	0.25000000	0.30112400
	O	0.17977000	0.75000000	0.30112400
	O	0.82023000	0.25000000	0.69887600
	O	0.17977000	0.75000000	0.69887600
	O	0.00000000	0.00000000	0.41667600
	O	0.00000000	0.50000000	0.58332400
	O	0.00000000	0.00000000	0.58332400
	O	0.00000000	0.50000000	0.41667600
	O	0.50000000	0.00000000	0.91667600
	O	0.50000000	0.50000000	0.08332400
	O	0.50000000	0.00000000	0.08332400
	O	0.50000000	0.50000000	0.91667600
	O	0.00000000	0.00000000	0.11494900
	O	0.00000000	0.50000000	0.88505100
	O	0.00000000	0.00000000	0.88505100
	O	0.00000000	0.50000000	0.11494900
	O	0.50000000	0.00000000	0.61494900
	O	0.50000000	0.50000000	0.38505100
	O	0.50000000	0.00000000	0.38505100
	O	0.50000000	0.50000000	0.61494900
	Ca	0.74046300	0.25000000	0.00000000
	Ca	0.25953700	0.75000000	0.00000000
	Ca	0.24046300	0.25000000	0.50000000
	Ca	0.75953700	0.75000000	0.50000000
	Ca	0.23533500	0.25000000	0.68651400
	Ca	0.76466500	0.75000000	0.68651400
	Ca	0.23533500	0.25000000	0.31348600
	Ca	0.76466500	0.75000000	0.31348600
	Ca	0.73533500	0.25000000	0.18651400
	Ca	0.26466500	0.75000000	0.18651400
	Ca	0.73533500	0.25000000	0.81348600
	Ca	0.26466500	0.75000000	0.81348600
	Ti	0.24684700	0.25000000	0.89966800
	Ti	0.75315300	0.75000000	0.89966800
	Ti	0.24684700	0.25000000	0.10033200
	Ti	0.75315300	0.75000000	0.10033200
	Ti	0.74684700	0.25000000	0.39966800
	Ti	0.25315300	0.75000000	0.39966800
	Ti	0.74684700	0.25000000	0.60033200
	Ti	0.25315300	0.75000000	0.60033200
%ENDBLOCK POSITIONS_FRAC
